100
1000
396
396
394
394
393
389
388
387
387
387
386
386
385
383
383
381
379
379
378
378
376
376
375
374
371
371
365
364
363
363
363
363
361
358
357
355
354
353
350
349
349
348
346
346
346
345
344
343
342
342
341
341
339
336
334
331
331
331
329
328
328
327
326
324
321
318
316
316
314
311
310
307
305
303
299
297
297
290
290
287
286
284
284
282
282
281
278
277
277
277
276
275
275
273
272
271
271
267
267
266
